c This is a random SAT instance with 10 variables and 20 clauses
p cnf 10 20
4 2 -9 7 -2 9 -8 8 -5 -1 0
-5 -6 4 -4 6 9 0
-8 -9 10 -3 -1 -2 9 0
-2 0
3 0
3 2 8 0
9 1 -2 -5 -1 5 3 -9 -7 0
5 -3 -10 -2 -1 8 0
-3 -10 -8 8 -2 -7 -4 0
-3 6 -9 3 1 2 0
2 -8 8 -3 3 0
9 6 -10 0
-1 -5 1 -6 6 -10 -7 -2 0
1 -3 3 4 -4 -8 5 8 -2 0
-7 5 8 0
8 -3 5 -2 6 1 -5 -10 -4 0
-8 10 2 7 1 8 5 -10 0
2 10 0
-9 0
-8 -2 4 -7 -1 7 -6 9 0